22	3

10	10	10	

0	0	0	0	3	2	3	4	
3	3	5	2	2	6	7	
1	5	4	3	3	5	6	7	
3	5	2	2	2	7	8	
3	4	1	4	2	11	12	
3	5	5	4	2	9	11	
7	3	5	2	2	9	10	
2	2	4	4	2	9	11	
7	3	2	2	1	14	
7	3	2	4	1	13	
1	3	3	2	3	13	15	16	
6	4	1	4	1	14	
1	1	4	4	1	17	
9	2	2	2	1	17	
2	5	5	4	1	18	
1	1	5	4	1	19	
3	4	5	4	1	20	
7	3	2	3	1	21	
2	5	3	3	1	21	
1	2	4	6	1	22	
4	1	6	2	1	22	
0	0	0	0	0	
